memory 8gb
molecule {
    symmetry c1 # this is important; some perturbations will break symmetry
#    no_reorient
N         0.67837695692501   -1.12553075238253   -0.75351316313868
C         0.69076487457325   -1.13302402016790    0.57633459963242
N         0.67260567310928    1.22086836115632   -0.65682280501564
C         0.64935588359467    0.13784642758504   -2.78983780738900
H         0.29471601990447   -1.86773440551920   -5.48904971795259
C         0.67692044571248    1.12004797568487    0.66890447780177
C         0.68222365779269   -2.42789482160004    1.25669809365942
H         0.91760113830125   -3.54920452637610   -0.54476403827043
C         0.67440674735975    0.07325617865018   -1.32854603334757
N         0.69244161019693   -0.03518269492719    1.32661445757312
C         0.60442680151043   -4.88703305551082    2.55472370980229
C         0.64362149236062    2.35569091540058    1.45125853259120
H        -0.68035277705181   -5.91413228739435  -17.11822418807566
C         0.47415009930391   -1.02355589086224   -3.54002953503832
C         0.47492929465219    0.40186254208986   -7.05439167097727
C         0.79576038269527    1.36251136883689   -3.43931433044230
H        -1.11152587611065   -6.68002871095919  -15.58837472261220
C         0.41254587978984   -0.95781152652674   -4.91739069111413
C         0.53605540094716    0.26854859327543   -5.56600892817356
C         0.74988164059265    1.42229462163138   -4.81616263876421
H         0.56517051767323   -6.23990853740806  -15.91183649695279
H         0.87333357940579    2.35955093088178   -5.33745965591045
C         0.71068458643471    3.48251778108562    3.57013507822051
C         0.77072688055817    2.31514529664950    2.83874889500269
H         0.38164677947796   -1.96633982212931   -3.02403951690872
C         0.45370291487781    3.57966535182779    0.81262013135526
H         0.91104736276469    1.36098021258213    3.32133744451240
H         0.33953063274946    3.59360585715002   -0.25995199098491
C         0.39854488128015    4.74634858932645    1.54773630170370
H         0.43079909318018   -3.73596164256816    4.36439790539394
C         0.43306421859068    5.93234078696430    3.78777938895172
C         0.53473929828947    4.70902075544317    2.93361538084709
H         0.79201222561624    3.47036304583502    4.64655833891127
C         0.79979888990050   -3.60883065278690    0.52559326833175
C         0.55278212081227   -2.48569503425950    2.64331896448245
H         0.48141173708015   -1.56281114962339    3.19710641322251
C         0.51029003411549   -3.70572859204108    3.28672988206528
C         0.77048411361705   -4.82601378579519    1.17344668340093
H         0.87159513360088   -5.75088518064041    0.62586641374766
C         0.56568608004828   -6.23550870963300    3.20054606650618
N        -0.29364140521660   -6.32972543958278    4.24160447145836
O         1.23139857989543   -7.17000840888847    2.80070465087931
C        -0.11882256211709   -7.32735839980108    6.48454438640327
H         0.19104457961401   -8.28664120718979    4.56598693456909
C        -0.46819922005534   -7.53833950044789    5.01145866011375
H        -1.50500960662541   -7.88359921149536    4.92208507725404
H        -0.84659891523411   -5.52940967014229    4.50306326868416
H         0.92137622862563   -7.00517711197139    6.56293437302730
H        -0.74845395681530   -6.53321156809437    6.89559986010118
C        -0.32428875875556   -8.60615606288218    7.29157388916726
H         0.31273547070356   -9.39385430920970    6.88451770065597
C        -0.00466835049999   -8.41087983066729    8.77166085491913
H        -1.36160552048056   -8.93376728325188    7.18807520058424
H         1.03611701496053   -8.09742909826299    8.87919557202680
H        -0.63304180465419   -7.61347798971352    9.17597944375297
C        -0.23408949719953   -9.68861032417246    9.57526818038335
H         0.39518097809215  -10.48554812052960    9.17237243498884
C         0.07685601433899   -9.50078494940863   11.05791335600594
H        -1.27471383705374  -10.00253319374328    9.46266563003929
H         1.12086534749753   -9.20000387517037   11.17301405017979
H        -0.54421583690581   -8.69569952380567   11.45818215269649
C        -0.17197389585863  -10.77443803582289   11.86226247477526
H         0.44911724786568  -11.57961450456197   11.46318798849251
C         0.13807441472171  -10.58132941539649   13.34148036548263
H        -1.21598888789697  -11.07493655369437   11.74670893959790
H         1.18060977594866  -10.30279585523278   13.47936019051316
H        -0.48400898650558   -9.79396900144758   13.76186229613738
H        -0.04828443081499  -11.49842928672689   13.89545956296594
O        -0.03528418874779    5.89875483837410    4.90910334436289
N         0.92094136599648    7.06256760750474    3.22611424834560
H         1.30539140972907    7.03001580616161    2.29607605777420
C         0.80180406185716    8.35747010194355    3.85378072998651
H         1.77871700737541    8.85160358288866    3.85722864936317
C        -0.23075945113550    9.23403971281323    3.14252094647761
H         0.49127735395052    8.17486686389101    4.88493635645147
H         0.07732826978733    9.39071841260244    2.10507129194798
H        -1.18778664336024    8.70820362072938    3.13247410259274
C        -0.39879378614049   10.58393410764433    3.83361628503207
H         0.55692617135305   11.11334894178203    3.83415975140428
C        -1.45626835777743   11.44473006406290    3.14657850828128
H        -0.68710761464080   10.42000106322476    4.87382974603021
H        -1.17014403251055   11.60845664701409    2.10473258293028
H        -2.40891813812136   10.91009376146078    3.14662822896108
C        -1.63794699202458   12.79412102405088    3.83709299359522
H        -0.69331406866977   13.34277450807736    3.81457961080633
C        -2.72667685514620   13.63269421761466    3.17219226539464
H        -1.89866379099149   12.63017639247007    4.88523873493645
H        -2.47245598824877   13.78716137553069    2.12071370389069
H        -3.67214540627658   13.08601356839778    3.20555491727298
C        -2.90698988670151   14.98865093514615    3.85006855860372
H        -1.96640426440130   15.54249837203784    3.80506176549341
C        -4.00973988668701   15.80808573695787    3.19107930064411
H        -3.14959460161542   14.83513401158219    4.90406536125711
H        -3.77943258049172   15.98391068970462    2.14241246568181
H        -4.96059038470799   15.28248906766273    3.24798684863659
H        -4.11990756576968   16.77095665159586    3.68443163164238
N        -0.43008261216824   -0.40902306137095   -7.64992994176059
C        -0.64855775936616   -0.42773383301277   -9.07684269614584
O         1.16129903974134    1.19562994667880   -7.66689627988361
H        -0.99904154989536   -1.01831710873157   -7.08454852520853
H         0.03309207912359    0.31174263795079   -9.50301339822568
C        -0.38083843909483   -1.80798454799291   -9.67618232368173
H        -1.67937618477457   -0.12333528922325   -9.29390107561915
H         0.65370123967883   -2.09177121383081   -9.47360338223474
H        -1.03155940764037   -2.54407094637150   -9.19585508493260
C        -0.63164002222688   -1.81431878915614  -11.18155629299631
H         0.02500402087749   -1.08346184485191  -11.65764681519531
C        -0.39135845580855   -3.18900725255412  -11.80061713688575
H        -1.66241806866690   -1.50783552662425  -11.37560909926182
H         0.64194057431829   -3.49251912151700  -11.61837973141905
H        -1.04113402434749   -3.92287031366755  -11.31750801251826
C        -0.66124552164814   -3.18968054166799  -13.30336707825633
H        -0.01292525003272   -2.45474771839464  -13.78605166996257
C        -0.42395920756203   -4.56091149801981  -13.93072071255968
H        -1.69505585612899   -2.88499481871300  -13.48371780048168
H         0.61261283569718   -4.86139908000590  -13.76070817884877
H        -1.06536115093580   -5.29805538603840  -13.44150773684126
C        -0.70920543854523   -4.56330178220888  -15.43061810604118
H        -0.06899228491327   -3.82588951198541  -15.92018445653556
C        -0.46938025835568   -5.93386416546403  -16.05155478852815
H        -1.74623764023627   -4.26442560929843  -15.60047481320847
H         0.94879726042656    2.25074152805466   -2.84711164773113
H         0.21443512272856    5.68217353839362    1.03881394885592

}
set {
    basis     6-31g
    d_convergence   10
    reference rhf
    scf_type direct
}
method = 'B3LYP'
E, wfn = energy(method, return_wfn=True)
molden(wfn, 'HS_4.molden')
