memory 8gb
molecule {
    symmetry c1 # this is important; some perturbations will break symmetry
#    no_reorient
N
C      1      1.33384
N      1      2.35778    2     87.70244
C      1      2.40890    2    148.28227    3     -1.79190
H      2      6.18372    3     69.29385    4     -3.48402
C      3      1.33290    4    148.50029    5     29.67005
C      4      4.81502    5    111.23272    6     14.76193
H      5      5.37553    6     44.82633    7     -7.81904
C      6      2.25453    7     71.76240    8     10.97960
N      7      2.41003    8    124.43127    9     -8.53201
C      8      3.39999    9    124.73092   10      9.32910
C      9      3.60763   10     41.94889   11   -178.63073
H     10      7.23432   11    158.79418   12    -18.20672
C     11      7.32470   12     48.64617   13    150.37594
C     12      8.79514   13    110.95744   14      6.04778
C     13      8.12121   14      9.77833   15    -21.55232
C     14      6.82194   15     21.90348   16    156.60796
C     15      2.53019   16     47.68317   17    -71.39478
C     16      2.42525   17     12.32070   18     30.80692
C     17      5.99860   18     23.70856   19     -5.72564
C     18      4.25421   19     59.60171   20    167.38383
H     19      2.16023   20     25.84062   21     19.81602
C     20      8.73053   21    157.40906   22    127.17188
C     21     12.32352   22     27.52625   23     -6.27508
H     22      4.96143   23     69.85669   24      4.06643
C     23      2.78118   24     59.77139   25    -15.72667
H     24      1.08929   25     83.00716   26   -176.77749
H     25      6.39818   26      8.43945   27   -174.36165
C     26      1.40109   27     99.11925   28   -178.13301
H     27      5.37340   28    130.63817   29   -165.95767
C     28      4.66972   29      1.92780   30      2.74427
C     29      1.39727   30     70.97719   31     -3.90455
H     30      7.37140   31      6.35632   32   -153.87495
C     31     10.19831   32     15.25485   33     16.52922
C     32      7.35908   33     56.44927   34     -0.58101
H     33      5.38727   34     15.10756   35     -1.85264
C     34      2.78811   35     30.20490   36    178.33008
C     35      2.78206   36    178.21912   37    -28.86764
H     36      4.96045   37     34.07103   38     -0.40164
C     37      2.53298   38     60.04948   39     -1.83056
N     38      3.65260   39     98.04967   40     -9.72669
O     39      2.54376   40     27.06444   41   -128.02527
C     40      3.58043   41     33.92124   42     -2.29761
C     41     18.78972   42    111.85926   43    168.11396
C     42      2.91305   43     14.24268   44    -10.65154
H     43      6.46353   44    102.71628   45    148.98625
H     44     12.57256   45     38.64585   46    155.82313
H     45     13.99533   46    119.77982   47     -8.59300
C     46      5.75123   47     42.63199   48    160.33155
H     47     13.88686   48    172.62792   49    164.49339
C     48     16.86155   49      4.61935   50   -155.82690
C     49     22.77790   50     72.56469   51     75.96514
C     50     23.75743   51      1.20822   52     78.25477
C     51      2.40130   52    103.60923   53     -0.13429
C     52     24.24901   53     58.62696   54    154.65786
O     53     19.90089   54    140.56609   55    -23.39286
C     54     24.05094   55      2.70814   56     31.32721
O     55     20.85467   56     12.77354   57    -96.04500
N     56     12.34198   57    162.80211   58    -26.61274
H     57     17.83245   58     35.97647   59   -154.90480
C     58      2.91770   59     26.86997   60   -162.06053
N     59     13.31849   60     61.40971   61   -165.21505
C     60     15.32924   61      1.95804   62   -165.31724
C     61     18.90768   62      5.37415   63     -7.78251
C     62      3.85026   63    142.14918   64    -13.80796
C     63      1.29814   64    145.74163   65    -44.65186
H     64      5.14413   65     49.11655   66     36.72632
C     65     19.99968   66      4.02368   67    121.66154
H     66      1.08350   67    133.61472   68   -158.59339
C     67     20.51646   68     73.19718   69     60.78030
H     68     19.94547   69    103.40911   70    -65.67719
C     69     24.94108   70     67.22677   71     -7.27166
H     70     26.47186   71     13.84538   72      8.09621
H     71     25.90668   72     88.03635   73   -107.02913
C     72     26.02548   73    112.98694   74     63.85576
H     73     26.51590   74     60.33983   75      0.39500
H     74     25.69395   75      2.40017   76   -143.03098
H     75     24.38708   76    141.99143   77    118.15181

}

pert = 0.001
lambdas = [pert, -pert, 2.0*pert, -2.0*pert]

set {
    basis     sto-3g
    d_convergence   6
    reference rhf
    scf_type direct
}
method = 'B3LYP'
energy(method)
